50 3
25 1000
20
30
10
40
20
20
20
10
20
30
40
20
10
10
20
20
20
20
40
10
10
40
30
10
20
30
20
10
10
10
20
10
10
30
20
40
10
30
10
30
20
10
20
10
10
10
10
10
10
30
40 50 0 960 0 0
25 85 0 911 10 1
22 75 0 919 10 3
22 85 0 910 10 1
20 80 644 764 10 1
20 85 0 909 10 2
18 75 0 916 10 1
15 75 0 914 10 2
15 80 367 487 10 2
10 35 371 491 10 2
10 40 0 918 10 3
8 40 195 315 10 2
8 45 0 917 10 2
5 35 653 773 10 3
5 45 0 914 10 3
2 40 174 294 10 2
0 40 0 908 10 3
0 45 0 909 10 1
44 5 0 904 10 2
42 10 0 909 10 3
42 15 0 914 10 2
40 5 0 905 10 1
40 15 0 915 10 1
38 5 201 321 10 1
38 15 0 914 10 2
35 5 784 904 10 2
95 30 0 891 10 1
95 35 0 892 10 1
92 30 0 894 10 2
90 35 0 897 10 3
88 30 0 898 10 3
88 35 0 899 10 2
87 30 0 898 10 3
85 25 0 898 10 2
85 35 0 902 10 3
67 85 0 905 10 3
65 85 0 906 10 2
65 82 0 909 10 2
62 80 278 398 10 1
60 80 0 913 10 3
60 85 0 909 10 2
58 75 0 919 10 2
55 80 0 916 10 2
55 85 0 911 10 2
55 82 217 337 10 3
20 82 0 912 10 3
18 80 0 912 10 2
2 45 0 911 10 1
42 5 0 904 10 1
42 12 0 911 10 2
72 35 0 914 10 1
1 22 0 960 5 4
5 52 0 960 5 4
84 54 0 960 5 4
0 0 0
0 1 0
0 0 0
0 0 0
0 1 0
0 0 0
0 1 0
0 1 0
1 0 0
0 1 0
0 1 0
0 1 0
1 0 0
0 1 0
0 1 0
0 1 0
0 0 0
1 0 0
1 0 0
1 0 0
0 0 0
0 0 0
0 0 0
1 0 0
1 0 0
0 0 0
0 0 0
0 0 1
0 0 1
0 0 1
0 0 1
0 0 1
0 0 1
0 0 1
0 0 1
0 0 1
0 0 1
0 0 0
0 0 1
0 0 1
0 0 1
0 0 1
0 0 1
0 0 1
0 1 0
0 1 0
0 0 0
0 0 0
1 0 0
0 0 0
